Cost: 1444
0-40-9-8-10-43-11-12-13-15-17-14-19-21-1-2-0
0-44-30-29-22-18-42-23-24-25-26-27-33-34-36-0
0-3-4-6-41-39-38-0
Cost: 1444
0-4-44-30-29-22-18-42-23-24-25-26-27-33-34-36-0
0-3-6-41-39-38-0
0-40-9-8-10-43-11-12-13-15-17-14-19-21-1-2-0
Cost: 1444
0-40-9-8-10-43-11-12-13-15-17-14-19-21-1-2-0
0-44-30-29-22-18-42-23-24-25-26-27-33-34-36-0
0-3-4-6-41-39-38-0
Cost: 1444
0-40-9-8-10-43-11-12-13-15-17-14-19-21-1-2-0
0-44-30-29-22-18-42-23-24-25-26-27-33-34-36-0
0-3-4-6-41-39-38-0
Cost: 1444
0-40-9-8-10-43-11-12-13-15-17-14-19-21-1-2-0
0-44-30-29-22-18-42-23-24-25-26-27-33-34-36-0
0-3-4-6-41-39-38-0
Cost: 1444
0-5-44-30-29-22-18-42-23-24-25-26-27-33-34-36-0
0-40-9-8-10-43-11-12-13-15-17-14-19-21-1-2-0
0-3-6-41-39-38-0
Cost: 1444
0-40-9-8-10-43-11-12-13-15-17-14-19-21-1-2-0
0-44-30-29-22-18-42-23-24-25-26-27-33-34-36-0
0-3-4-6-41-39-38-0
Cost: 1444
0-3-6-41-39-38-0
0-5-44-31-29-22-18-42-23-24-25-26-27-33-34-36-0
0-40-9-8-10-43-11-12-13-15-17-14-19-21-1-2-0
Cost: 1444
0-3-6-41-39-38-0
0-5-44-31-29-22-18-42-23-24-25-26-27-33-34-36-0
0-40-9-8-10-43-11-12-13-15-17-14-19-21-1-2-0
Cost: 1444
0-3-6-41-39-38-0
0-5-44-31-29-22-18-42-23-24-25-26-27-33-34-36-0
0-40-9-8-10-43-11-12-13-15-17-14-19-21-1-2-0
Cost: 1444
0-3-6-41-39-38-0
0-5-44-31-29-22-18-42-23-24-25-26-27-33-34-36-0
0-40-9-8-10-43-11-12-13-15-17-14-19-21-1-2-0
Cost: 1444
0-44-30-29-22-18-42-23-24-25-26-27-33-34-36-0
0-3-4-6-41-39-38-0
0-40-9-8-10-43-11-12-13-15-17-14-19-21-1-2-0
Cost: 1444
0-5-44-30-29-22-18-42-23-24-25-26-27-33-34-36-0
0-40-9-8-10-43-11-12-13-15-17-14-19-21-1-2-0
0-3-6-41-39-38-0
Cost: 1444
0-3-6-41-39-38-0
0-5-44-31-29-22-18-42-23-24-25-26-27-33-34-36-0
0-40-9-8-10-43-11-12-13-15-17-14-19-21-1-2-0
Cost: 1444
0-44-30-29-22-18-42-23-24-25-26-27-33-34-36-0
0-3-4-6-41-39-38-0
0-40-9-8-10-43-11-12-13-15-17-14-19-21-1-2-0
Cost: 1444
0-3-6-41-39-38-0
0-5-44-31-29-22-18-42-23-24-25-26-27-33-34-36-0
0-40-9-8-10-43-11-12-13-15-17-14-19-21-1-2-0
Cost: 1444
0-44-30-29-22-18-42-23-24-25-26-27-33-34-36-0
0-3-4-6-41-39-38-0
0-40-9-8-10-43-11-12-13-15-17-14-19-21-1-2-0
Cost: 1444
0-40-9-8-10-43-11-12-13-15-17-14-19-21-1-2-0
0-44-30-29-22-18-42-23-24-25-26-27-33-34-36-0
0-3-4-6-41-39-38-0
Cost: 1444
0-3-6-41-39-38-0
0-5-44-31-29-22-18-42-23-24-25-26-27-33-34-36-0
0-40-9-8-10-43-11-12-13-15-17-14-19-21-1-2-0
Cost: 1444
0-3-4-6-41-39-38-0
0-44-30-29-22-18-42-23-24-25-26-27-33-34-36-0
0-40-9-8-10-43-11-12-13-15-17-14-19-21-1-2-0
Cost: 1444
0-3-4-6-41-39-38-0
0-40-9-8-10-43-11-12-13-15-17-14-19-21-1-2-0
0-44-30-29-22-18-42-23-24-25-26-27-33-34-36-0
Cost: 1444
0-40-9-8-10-43-11-12-13-15-17-14-19-21-1-2-0
0-3-4-6-41-39-38-0
0-44-30-29-22-18-42-23-24-25-26-27-33-34-36-0
Cost: 1444
0-40-9-8-10-43-11-12-13-15-17-14-19-21-1-2-0
0-3-4-6-41-39-38-0
0-44-30-29-22-18-42-23-24-25-26-27-33-34-36-0
Cost: 1444
0-40-9-8-10-43-11-12-13-15-17-14-19-21-1-2-0
0-3-6-41-39-38-0
0-4-44-30-29-22-18-42-23-24-25-26-27-33-34-36-0
Cost: 1444
0-40-9-8-10-43-11-12-13-15-17-14-19-21-1-2-0
0-3-44-30-29-22-18-42-23-24-25-26-27-33-34-36-0
0-4-6-41-39-38-0
Cost: 1444
0-40-9-8-10-43-11-12-13-15-17-14-19-21-1-2-0
0-44-30-29-22-18-42-23-24-25-26-27-33-34-36-0
0-3-4-6-41-39-38-0
Cost: 1444
0-40-9-8-10-43-11-12-13-15-17-14-19-21-1-2-0
0-3-44-30-29-22-18-42-23-24-25-26-27-33-34-36-0
0-4-6-41-39-38-0
Cost: 1444
0-3-4-6-41-39-38-0
0-40-9-8-10-43-11-12-13-15-17-14-19-21-1-2-0
0-44-30-29-22-18-42-23-24-25-26-27-33-34-36-0
Cost: 1444
0-40-9-8-10-43-11-12-13-15-17-14-19-21-1-2-0
0-3-4-6-41-39-38-0
0-44-30-29-22-18-42-23-24-25-26-27-33-34-36-0
Cost: 1444
0-40-9-8-10-43-11-12-13-15-17-14-19-21-1-2-0
0-3-4-6-41-39-38-0
0-44-30-29-22-18-42-23-24-25-26-27-33-34-36-0
Cost: 1444
0-40-9-8-10-43-11-12-13-15-17-14-19-21-1-2-0
0-44-30-29-22-18-42-23-24-25-26-27-33-34-36-0
0-3-4-6-41-39-38-0
Cost: 1444
0-40-9-8-10-43-11-12-13-15-17-14-19-21-1-2-0
0-4-44-31-29-22-18-42-23-24-25-26-27-33-34-36-0
0-3-6-41-39-38-0
Cost: 1444
0-3-6-41-39-38-0
0-5-44-30-29-22-18-42-23-24-25-26-27-33-34-36-0
0-40-9-8-10-43-11-12-13-15-17-14-19-21-1-2-0
Cost: 1444
0-40-9-8-10-43-11-12-13-15-17-14-19-21-1-2-0
0-3-6-41-39-38-0
0-5-44-31-29-22-18-42-23-24-25-26-27-33-34-36-0
Cost: 1444
0-3-6-41-39-38-0
0-40-9-8-10-43-11-12-13-15-17-14-19-21-1-2-0
0-5-44-31-29-22-18-42-23-24-25-26-27-33-34-36-0
